\ This file has been generated by DOcplex
\ ENCODING=ISO-8859-1
\Problem name: GridSmall problem

Maximize
 obj: [ 0.140000000000 a0_u0*a1_u0_x6 + 0.040000000000 a0_u0*a1_u1_x6
      + 0.040000000000 a0_u0*a1_u2_x6 + 0.140000000000 a0_u0*a1_u3_x6
      + 0.240000000000 a0_u1*a1_u0_x6 + 0.140000000000 a0_u1*a1_u1_x6
      + 0.140000000000 a0_u1*a1_u2_x6 + 0.740000000000 a0_u1*a1_u3_x6
      + 0.740000000000 a0_u2*a1_u0_x6 + 0.140000000000 a0_u2*a1_u1_x6
      + 0.140000000000 a0_u2*a1_u2_x6 + 0.240000000000 a0_u2*a1_u3_x6
      + 0.140000000000 a0_u3*a1_u0_x6 + 0.040000000000 a0_u3*a1_u1_x6
      + 0.040000000000 a0_u3*a1_u2_x6 + 0.140000000000 a0_u3*a1_u3_x6 ]/2
Subject To
 c1: - 0.070000000000 aj_u0_x6 - 0.020000000000 aj_u1_x6
     - 0.020000000000 aj_u2_x6 - 0.070000000000 aj_u3_x6
     - 0.120000000000 aj_u5_x6 - 0.070000000000 aj_u6_x6
     - 0.070000000000 aj_u7_x6 - 0.370000000000 aj_u8_x6
     - 0.370000000000 aj_u10_x6 - 0.070000000000 aj_u11_x6
     - 0.070000000000 aj_u12_x6 - 0.120000000000 aj_u13_x6
     - 0.070000000000 aj_u15_x6 - 0.020000000000 aj_u16_x6
     - 0.020000000000 aj_u17_x6 - 0.070000000000 aj_u18_x6
     + 0.070000000000 a0_u0 + 0.120000000000 a0_u1 + 0.370000000000 a0_u2
     + 0.070000000000 a0_u3 >= 0
 c2: - 0.070000000000 aj_u0_x6 - 0.020000000000 aj_u1_x6
     - 0.020000000000 aj_u2_x6 - 0.070000000000 aj_u3_x6
     - 0.120000000000 aj_u5_x6 - 0.070000000000 aj_u6_x6
     - 0.070000000000 aj_u7_x6 - 0.370000000000 aj_u8_x6
     - 0.370000000000 aj_u10_x6 - 0.070000000000 aj_u11_x6
     - 0.070000000000 aj_u12_x6 - 0.120000000000 aj_u13_x6
     - 0.070000000000 aj_u15_x6 - 0.020000000000 aj_u16_x6
     - 0.020000000000 aj_u17_x6 - 0.070000000000 aj_u18_x6
     + 0.020000000000 a0_u0 + 0.070000000000 a0_u1 + 0.070000000000 a0_u2
     + 0.020000000000 a0_u3 >= 0
 c3: - 0.070000000000 aj_u0_x6 - 0.020000000000 aj_u1_x6
     - 0.020000000000 aj_u2_x6 - 0.070000000000 aj_u3_x6
     - 0.120000000000 aj_u5_x6 - 0.070000000000 aj_u6_x6
     - 0.070000000000 aj_u7_x6 - 0.370000000000 aj_u8_x6
     - 0.370000000000 aj_u10_x6 - 0.070000000000 aj_u11_x6
     - 0.070000000000 aj_u12_x6 - 0.120000000000 aj_u13_x6
     - 0.070000000000 aj_u15_x6 - 0.020000000000 aj_u16_x6
     - 0.020000000000 aj_u17_x6 - 0.070000000000 aj_u18_x6
     + 0.020000000000 a0_u0 + 0.070000000000 a0_u1 + 0.070000000000 a0_u2
     + 0.020000000000 a0_u3 >= 0
 c4: - 0.070000000000 aj_u0_x6 - 0.020000000000 aj_u1_x6
     - 0.020000000000 aj_u2_x6 - 0.070000000000 aj_u3_x6
     - 0.120000000000 aj_u5_x6 - 0.070000000000 aj_u6_x6
     - 0.070000000000 aj_u7_x6 - 0.370000000000 aj_u8_x6
     - 0.370000000000 aj_u10_x6 - 0.070000000000 aj_u11_x6
     - 0.070000000000 aj_u12_x6 - 0.120000000000 aj_u13_x6
     - 0.070000000000 aj_u15_x6 - 0.020000000000 aj_u16_x6
     - 0.020000000000 aj_u17_x6 - 0.070000000000 aj_u18_x6
     + 0.070000000000 a0_u0 + 0.370000000000 a0_u1 + 0.120000000000 a0_u2
     + 0.070000000000 a0_u3 >= 0
 c5: - 0.070000000000 aj_u0_x6 - 0.020000000000 aj_u1_x6
     - 0.020000000000 aj_u2_x6 - 0.070000000000 aj_u3_x6
     - 0.120000000000 aj_u5_x6 - 0.070000000000 aj_u6_x6
     - 0.070000000000 aj_u7_x6 - 0.370000000000 aj_u8_x6
     - 0.370000000000 aj_u10_x6 - 0.070000000000 aj_u11_x6
     - 0.070000000000 aj_u12_x6 - 0.120000000000 aj_u13_x6
     - 0.070000000000 aj_u15_x6 - 0.020000000000 aj_u16_x6
     - 0.020000000000 aj_u17_x6 - 0.070000000000 aj_u18_x6 >= 0
 c6: a0_u0 + a0_u1 + a0_u2 + a0_u3 + a0_u4 = 1
 c7: a1_u0_x0 + a1_u1_x0 + a1_u2_x0 + a1_u3_x0 + a1_u4_x0 = 1
 c8: aj_u0_x0 + aj_u1_x0 + aj_u2_x0 + aj_u3_x0 + aj_u4_x0 + aj_u5_x0 + aj_u6_x0
     + aj_u7_x0 + aj_u8_x0 + aj_u9_x0 + aj_u10_x0 + aj_u11_x0 + aj_u12_x0
     + aj_u13_x0 + aj_u14_x0 + aj_u15_x0 + aj_u16_x0 + aj_u17_x0 + aj_u18_x0
     + aj_u19_x0 + aj_u20_x0 + aj_u21_x0 + aj_u22_x0 + aj_u23_x0 + aj_u24_x0 = 
     1
 c9: a1_u0_x1 + a1_u1_x1 + a1_u2_x1 + a1_u3_x1 + a1_u4_x1 = 1
 c10: aj_u0_x1 + aj_u1_x1 + aj_u2_x1 + aj_u3_x1 + aj_u4_x1 + aj_u5_x1 + aj_u6_x1
      + aj_u7_x1 + aj_u8_x1 + aj_u9_x1 + aj_u10_x1 + aj_u11_x1 + aj_u12_x1
      + aj_u13_x1 + aj_u14_x1 + aj_u15_x1 + aj_u16_x1 + aj_u17_x1 + aj_u18_x1
      + aj_u19_x1 + aj_u20_x1 + aj_u21_x1 + aj_u22_x1 + aj_u23_x1 + aj_u24_x1
       = 1
 c11: a1_u0_x2 + a1_u1_x2 + a1_u2_x2 + a1_u3_x2 + a1_u4_x2 = 1
 c12: aj_u0_x2 + aj_u1_x2 + aj_u2_x2 + aj_u3_x2 + aj_u4_x2 + aj_u5_x2 + aj_u6_x2
      + aj_u7_x2 + aj_u8_x2 + aj_u9_x2 + aj_u10_x2 + aj_u11_x2 + aj_u12_x2
      + aj_u13_x2 + aj_u14_x2 + aj_u15_x2 + aj_u16_x2 + aj_u17_x2 + aj_u18_x2
      + aj_u19_x2 + aj_u20_x2 + aj_u21_x2 + aj_u22_x2 + aj_u23_x2 + aj_u24_x2
       = 1
 c13: a1_u0_x3 + a1_u1_x3 + a1_u2_x3 + a1_u3_x3 + a1_u4_x3 = 1
 c14: aj_u0_x3 + aj_u1_x3 + aj_u2_x3 + aj_u3_x3 + aj_u4_x3 + aj_u5_x3 + aj_u6_x3
      + aj_u7_x3 + aj_u8_x3 + aj_u9_x3 + aj_u10_x3 + aj_u11_x3 + aj_u12_x3
      + aj_u13_x3 + aj_u14_x3 + aj_u15_x3 + aj_u16_x3 + aj_u17_x3 + aj_u18_x3
      + aj_u19_x3 + aj_u20_x3 + aj_u21_x3 + aj_u22_x3 + aj_u23_x3 + aj_u24_x3
       = 1
 c15: a1_u0_x4 + a1_u1_x4 + a1_u2_x4 + a1_u3_x4 + a1_u4_x4 = 1
 c16: aj_u0_x4 + aj_u1_x4 + aj_u2_x4 + aj_u3_x4 + aj_u4_x4 + aj_u5_x4 + aj_u6_x4
      + aj_u7_x4 + aj_u8_x4 + aj_u9_x4 + aj_u10_x4 + aj_u11_x4 + aj_u12_x4
      + aj_u13_x4 + aj_u14_x4 + aj_u15_x4 + aj_u16_x4 + aj_u17_x4 + aj_u18_x4
      + aj_u19_x4 + aj_u20_x4 + aj_u21_x4 + aj_u22_x4 + aj_u23_x4 + aj_u24_x4
       = 1
 c17: a1_u0_x5 + a1_u1_x5 + a1_u2_x5 + a1_u3_x5 + a1_u4_x5 = 1
 c18: aj_u0_x5 + aj_u1_x5 + aj_u2_x5 + aj_u3_x5 + aj_u4_x5 + aj_u5_x5 + aj_u6_x5
      + aj_u7_x5 + aj_u8_x5 + aj_u9_x5 + aj_u10_x5 + aj_u11_x5 + aj_u12_x5
      + aj_u13_x5 + aj_u14_x5 + aj_u15_x5 + aj_u16_x5 + aj_u17_x5 + aj_u18_x5
      + aj_u19_x5 + aj_u20_x5 + aj_u21_x5 + aj_u22_x5 + aj_u23_x5 + aj_u24_x5
       = 1
 c19: a1_u0_x6 + a1_u1_x6 + a1_u2_x6 + a1_u3_x6 + a1_u4_x6 = 1
 c20: aj_u0_x6 + aj_u1_x6 + aj_u2_x6 + aj_u3_x6 + aj_u4_x6 + aj_u5_x6 + aj_u6_x6
      + aj_u7_x6 + aj_u8_x6 + aj_u9_x6 + aj_u10_x6 + aj_u11_x6 + aj_u12_x6
      + aj_u13_x6 + aj_u14_x6 + aj_u15_x6 + aj_u16_x6 + aj_u17_x6 + aj_u18_x6
      + aj_u19_x6 + aj_u20_x6 + aj_u21_x6 + aj_u22_x6 + aj_u23_x6 + aj_u24_x6
       = 1
 c21: a1_u0_x7 + a1_u1_x7 + a1_u2_x7 + a1_u3_x7 + a1_u4_x7 = 1
 c22: aj_u0_x7 + aj_u1_x7 + aj_u2_x7 + aj_u3_x7 + aj_u4_x7 + aj_u5_x7 + aj_u6_x7
      + aj_u7_x7 + aj_u8_x7 + aj_u9_x7 + aj_u10_x7 + aj_u11_x7 + aj_u12_x7
      + aj_u13_x7 + aj_u14_x7 + aj_u15_x7 + aj_u16_x7 + aj_u17_x7 + aj_u18_x7
      + aj_u19_x7 + aj_u20_x7 + aj_u21_x7 + aj_u22_x7 + aj_u23_x7 + aj_u24_x7
       = 1
 c23: a1_u0_x8 + a1_u1_x8 + a1_u2_x8 + a1_u3_x8 + a1_u4_x8 = 1
 c24: aj_u0_x8 + aj_u1_x8 + aj_u2_x8 + aj_u3_x8 + aj_u4_x8 + aj_u5_x8 + aj_u6_x8
      + aj_u7_x8 + aj_u8_x8 + aj_u9_x8 + aj_u10_x8 + aj_u11_x8 + aj_u12_x8
      + aj_u13_x8 + aj_u14_x8 + aj_u15_x8 + aj_u16_x8 + aj_u17_x8 + aj_u18_x8
      + aj_u19_x8 + aj_u20_x8 + aj_u21_x8 + aj_u22_x8 + aj_u23_x8 + aj_u24_x8
       = 1
 c25: a1_u0_x9 + a1_u1_x9 + a1_u2_x9 + a1_u3_x9 + a1_u4_x9 = 1
 c26: aj_u0_x9 + aj_u1_x9 + aj_u2_x9 + aj_u3_x9 + aj_u4_x9 + aj_u5_x9 + aj_u6_x9
      + aj_u7_x9 + aj_u8_x9 + aj_u9_x9 + aj_u10_x9 + aj_u11_x9 + aj_u12_x9
      + aj_u13_x9 + aj_u14_x9 + aj_u15_x9 + aj_u16_x9 + aj_u17_x9 + aj_u18_x9
      + aj_u19_x9 + aj_u20_x9 + aj_u21_x9 + aj_u22_x9 + aj_u23_x9 + aj_u24_x9
       = 1
 c27: a1_u0_x10 + a1_u1_x10 + a1_u2_x10 + a1_u3_x10 + a1_u4_x10 = 1
 c28: aj_u0_x10 + aj_u1_x10 + aj_u2_x10 + aj_u3_x10 + aj_u4_x10 + aj_u5_x10
      + aj_u6_x10 + aj_u7_x10 + aj_u8_x10 + aj_u9_x10 + aj_u10_x10 + aj_u11_x10
      + aj_u12_x10 + aj_u13_x10 + aj_u14_x10 + aj_u15_x10 + aj_u16_x10
      + aj_u17_x10 + aj_u18_x10 + aj_u19_x10 + aj_u20_x10 + aj_u21_x10
      + aj_u22_x10 + aj_u23_x10 + aj_u24_x10 = 1
 c29: a1_u0_x11 + a1_u1_x11 + a1_u2_x11 + a1_u3_x11 + a1_u4_x11 = 1
 c30: aj_u0_x11 + aj_u1_x11 + aj_u2_x11 + aj_u3_x11 + aj_u4_x11 + aj_u5_x11
      + aj_u6_x11 + aj_u7_x11 + aj_u8_x11 + aj_u9_x11 + aj_u10_x11 + aj_u11_x11
      + aj_u12_x11 + aj_u13_x11 + aj_u14_x11 + aj_u15_x11 + aj_u16_x11
      + aj_u17_x11 + aj_u18_x11 + aj_u19_x11 + aj_u20_x11 + aj_u21_x11
      + aj_u22_x11 + aj_u23_x11 + aj_u24_x11 = 1
 c31: a1_u0_x12 + a1_u1_x12 + a1_u2_x12 + a1_u3_x12 + a1_u4_x12 = 1
 c32: aj_u0_x12 + aj_u1_x12 + aj_u2_x12 + aj_u3_x12 + aj_u4_x12 + aj_u5_x12
      + aj_u6_x12 + aj_u7_x12 + aj_u8_x12 + aj_u9_x12 + aj_u10_x12 + aj_u11_x12
      + aj_u12_x12 + aj_u13_x12 + aj_u14_x12 + aj_u15_x12 + aj_u16_x12
      + aj_u17_x12 + aj_u18_x12 + aj_u19_x12 + aj_u20_x12 + aj_u21_x12
      + aj_u22_x12 + aj_u23_x12 + aj_u24_x12 = 1
 c33: a1_u0_x13 + a1_u1_x13 + a1_u2_x13 + a1_u3_x13 + a1_u4_x13 = 1
 c34: aj_u0_x13 + aj_u1_x13 + aj_u2_x13 + aj_u3_x13 + aj_u4_x13 + aj_u5_x13
      + aj_u6_x13 + aj_u7_x13 + aj_u8_x13 + aj_u9_x13 + aj_u10_x13 + aj_u11_x13
      + aj_u12_x13 + aj_u13_x13 + aj_u14_x13 + aj_u15_x13 + aj_u16_x13
      + aj_u17_x13 + aj_u18_x13 + aj_u19_x13 + aj_u20_x13 + aj_u21_x13
      + aj_u22_x13 + aj_u23_x13 + aj_u24_x13 = 1
 c35: a1_u0_x14 + a1_u1_x14 + a1_u2_x14 + a1_u3_x14 + a1_u4_x14 = 1
 c36: aj_u0_x14 + aj_u1_x14 + aj_u2_x14 + aj_u3_x14 + aj_u4_x14 + aj_u5_x14
      + aj_u6_x14 + aj_u7_x14 + aj_u8_x14 + aj_u9_x14 + aj_u10_x14 + aj_u11_x14
      + aj_u12_x14 + aj_u13_x14 + aj_u14_x14 + aj_u15_x14 + aj_u16_x14
      + aj_u17_x14 + aj_u18_x14 + aj_u19_x14 + aj_u20_x14 + aj_u21_x14
      + aj_u22_x14 + aj_u23_x14 + aj_u24_x14 = 1
 c37: a1_u0_x15 + a1_u1_x15 + a1_u2_x15 + a1_u3_x15 + a1_u4_x15 = 1
 c38: aj_u0_x15 + aj_u1_x15 + aj_u2_x15 + aj_u3_x15 + aj_u4_x15 + aj_u5_x15
      + aj_u6_x15 + aj_u7_x15 + aj_u8_x15 + aj_u9_x15 + aj_u10_x15 + aj_u11_x15
      + aj_u12_x15 + aj_u13_x15 + aj_u14_x15 + aj_u15_x15 + aj_u16_x15
      + aj_u17_x15 + aj_u18_x15 + aj_u19_x15 + aj_u20_x15 + aj_u21_x15
      + aj_u22_x15 + aj_u23_x15 + aj_u24_x15 = 1
 c39: aj_u0_x0 + aj_u1_x0 + aj_u2_x0 + aj_u3_x0 + aj_u4_x0 - a0_u0 = 0
 c40: aj_u5_x0 + aj_u6_x0 + aj_u7_x0 + aj_u8_x0 + aj_u9_x0 - a0_u1 = 0
 c41: aj_u10_x0 + aj_u11_x0 + aj_u12_x0 + aj_u13_x0 + aj_u14_x0 - a0_u2 = 0
 c42: aj_u15_x0 + aj_u16_x0 + aj_u17_x0 + aj_u18_x0 + aj_u19_x0 - a0_u3 = 0
 c43: aj_u20_x0 + aj_u21_x0 + aj_u22_x0 + aj_u23_x0 + aj_u24_x0 - a0_u4 = 0
 c44: aj_u0_x1 + aj_u1_x1 + aj_u2_x1 + aj_u3_x1 + aj_u4_x1 - a0_u0 = 0
 c45: aj_u5_x1 + aj_u6_x1 + aj_u7_x1 + aj_u8_x1 + aj_u9_x1 - a0_u1 = 0
 c46: aj_u10_x1 + aj_u11_x1 + aj_u12_x1 + aj_u13_x1 + aj_u14_x1 - a0_u2 = 0
 c47: aj_u15_x1 + aj_u16_x1 + aj_u17_x1 + aj_u18_x1 + aj_u19_x1 - a0_u3 = 0
 c48: aj_u20_x1 + aj_u21_x1 + aj_u22_x1 + aj_u23_x1 + aj_u24_x1 - a0_u4 = 0
 c49: aj_u0_x2 + aj_u1_x2 + aj_u2_x2 + aj_u3_x2 + aj_u4_x2 - a0_u0 = 0
 c50: aj_u5_x2 + aj_u6_x2 + aj_u7_x2 + aj_u8_x2 + aj_u9_x2 - a0_u1 = 0
 c51: aj_u10_x2 + aj_u11_x2 + aj_u12_x2 + aj_u13_x2 + aj_u14_x2 - a0_u2 = 0
 c52: aj_u15_x2 + aj_u16_x2 + aj_u17_x2 + aj_u18_x2 + aj_u19_x2 - a0_u3 = 0
 c53: aj_u20_x2 + aj_u21_x2 + aj_u22_x2 + aj_u23_x2 + aj_u24_x2 - a0_u4 = 0
 c54: aj_u0_x3 + aj_u1_x3 + aj_u2_x3 + aj_u3_x3 + aj_u4_x3 - a0_u0 = 0
 c55: aj_u5_x3 + aj_u6_x3 + aj_u7_x3 + aj_u8_x3 + aj_u9_x3 - a0_u1 = 0
 c56: aj_u10_x3 + aj_u11_x3 + aj_u12_x3 + aj_u13_x3 + aj_u14_x3 - a0_u2 = 0
 c57: aj_u15_x3 + aj_u16_x3 + aj_u17_x3 + aj_u18_x3 + aj_u19_x3 - a0_u3 = 0
 c58: aj_u20_x3 + aj_u21_x3 + aj_u22_x3 + aj_u23_x3 + aj_u24_x3 - a0_u4 = 0
 c59: aj_u0_x4 + aj_u1_x4 + aj_u2_x4 + aj_u3_x4 + aj_u4_x4 - a0_u0 = 0
 c60: aj_u5_x4 + aj_u6_x4 + aj_u7_x4 + aj_u8_x4 + aj_u9_x4 - a0_u1 = 0
 c61: aj_u10_x4 + aj_u11_x4 + aj_u12_x4 + aj_u13_x4 + aj_u14_x4 - a0_u2 = 0
 c62: aj_u15_x4 + aj_u16_x4 + aj_u17_x4 + aj_u18_x4 + aj_u19_x4 - a0_u3 = 0
 c63: aj_u20_x4 + aj_u21_x4 + aj_u22_x4 + aj_u23_x4 + aj_u24_x4 - a0_u4 = 0
 c64: aj_u0_x5 + aj_u1_x5 + aj_u2_x5 + aj_u3_x5 + aj_u4_x5 - a0_u0 = 0
 c65: aj_u5_x5 + aj_u6_x5 + aj_u7_x5 + aj_u8_x5 + aj_u9_x5 - a0_u1 = 0
 c66: aj_u10_x5 + aj_u11_x5 + aj_u12_x5 + aj_u13_x5 + aj_u14_x5 - a0_u2 = 0
 c67: aj_u15_x5 + aj_u16_x5 + aj_u17_x5 + aj_u18_x5 + aj_u19_x5 - a0_u3 = 0
 c68: aj_u20_x5 + aj_u21_x5 + aj_u22_x5 + aj_u23_x5 + aj_u24_x5 - a0_u4 = 0
 c69: aj_u0_x6 + aj_u1_x6 + aj_u2_x6 + aj_u3_x6 + aj_u4_x6 - a0_u0 = 0
 c70: aj_u5_x6 + aj_u6_x6 + aj_u7_x6 + aj_u8_x6 + aj_u9_x6 - a0_u1 = 0
 c71: aj_u10_x6 + aj_u11_x6 + aj_u12_x6 + aj_u13_x6 + aj_u14_x6 - a0_u2 = 0
 c72: aj_u15_x6 + aj_u16_x6 + aj_u17_x6 + aj_u18_x6 + aj_u19_x6 - a0_u3 = 0
 c73: aj_u20_x6 + aj_u21_x6 + aj_u22_x6 + aj_u23_x6 + aj_u24_x6 - a0_u4 = 0
 c74: aj_u0_x7 + aj_u1_x7 + aj_u2_x7 + aj_u3_x7 + aj_u4_x7 - a0_u0 = 0
 c75: aj_u5_x7 + aj_u6_x7 + aj_u7_x7 + aj_u8_x7 + aj_u9_x7 - a0_u1 = 0
 c76: aj_u10_x7 + aj_u11_x7 + aj_u12_x7 + aj_u13_x7 + aj_u14_x7 - a0_u2 = 0
 c77: aj_u15_x7 + aj_u16_x7 + aj_u17_x7 + aj_u18_x7 + aj_u19_x7 - a0_u3 = 0
 c78: aj_u20_x7 + aj_u21_x7 + aj_u22_x7 + aj_u23_x7 + aj_u24_x7 - a0_u4 = 0
 c79: aj_u0_x8 + aj_u1_x8 + aj_u2_x8 + aj_u3_x8 + aj_u4_x8 - a0_u0 = 0
 c80: aj_u5_x8 + aj_u6_x8 + aj_u7_x8 + aj_u8_x8 + aj_u9_x8 - a0_u1 = 0
 c81: aj_u10_x8 + aj_u11_x8 + aj_u12_x8 + aj_u13_x8 + aj_u14_x8 - a0_u2 = 0
 c82: aj_u15_x8 + aj_u16_x8 + aj_u17_x8 + aj_u18_x8 + aj_u19_x8 - a0_u3 = 0
 c83: aj_u20_x8 + aj_u21_x8 + aj_u22_x8 + aj_u23_x8 + aj_u24_x8 - a0_u4 = 0
 c84: aj_u0_x9 + aj_u1_x9 + aj_u2_x9 + aj_u3_x9 + aj_u4_x9 - a0_u0 = 0
 c85: aj_u5_x9 + aj_u6_x9 + aj_u7_x9 + aj_u8_x9 + aj_u9_x9 - a0_u1 = 0
 c86: aj_u10_x9 + aj_u11_x9 + aj_u12_x9 + aj_u13_x9 + aj_u14_x9 - a0_u2 = 0
 c87: aj_u15_x9 + aj_u16_x9 + aj_u17_x9 + aj_u18_x9 + aj_u19_x9 - a0_u3 = 0
 c88: aj_u20_x9 + aj_u21_x9 + aj_u22_x9 + aj_u23_x9 + aj_u24_x9 - a0_u4 = 0
 c89: aj_u0_x10 + aj_u1_x10 + aj_u2_x10 + aj_u3_x10 + aj_u4_x10 - a0_u0 = 0
 c90: aj_u5_x10 + aj_u6_x10 + aj_u7_x10 + aj_u8_x10 + aj_u9_x10 - a0_u1 = 0
 c91: aj_u10_x10 + aj_u11_x10 + aj_u12_x10 + aj_u13_x10 + aj_u14_x10 - a0_u2 = 
      0
 c92: aj_u15_x10 + aj_u16_x10 + aj_u17_x10 + aj_u18_x10 + aj_u19_x10 - a0_u3 = 
      0
 c93: aj_u20_x10 + aj_u21_x10 + aj_u22_x10 + aj_u23_x10 + aj_u24_x10 - a0_u4 = 
      0
 c94: aj_u0_x11 + aj_u1_x11 + aj_u2_x11 + aj_u3_x11 + aj_u4_x11 - a0_u0 = 0
 c95: aj_u5_x11 + aj_u6_x11 + aj_u7_x11 + aj_u8_x11 + aj_u9_x11 - a0_u1 = 0
 c96: aj_u10_x11 + aj_u11_x11 + aj_u12_x11 + aj_u13_x11 + aj_u14_x11 - a0_u2 = 
      0
 c97: aj_u15_x11 + aj_u16_x11 + aj_u17_x11 + aj_u18_x11 + aj_u19_x11 - a0_u3 = 
      0
 c98: aj_u20_x11 + aj_u21_x11 + aj_u22_x11 + aj_u23_x11 + aj_u24_x11 - a0_u4 = 
      0
 c99: aj_u0_x12 + aj_u1_x12 + aj_u2_x12 + aj_u3_x12 + aj_u4_x12 - a0_u0 = 0
 c100: aj_u5_x12 + aj_u6_x12 + aj_u7_x12 + aj_u8_x12 + aj_u9_x12 - a0_u1 = 0
 c101: aj_u10_x12 + aj_u11_x12 + aj_u12_x12 + aj_u13_x12 + aj_u14_x12 - a0_u2
        = 0
 c102: aj_u15_x12 + aj_u16_x12 + aj_u17_x12 + aj_u18_x12 + aj_u19_x12 - a0_u3
        = 0
 c103: aj_u20_x12 + aj_u21_x12 + aj_u22_x12 + aj_u23_x12 + aj_u24_x12 - a0_u4
        = 0
 c104: aj_u0_x13 + aj_u1_x13 + aj_u2_x13 + aj_u3_x13 + aj_u4_x13 - a0_u0 = 0
 c105: aj_u5_x13 + aj_u6_x13 + aj_u7_x13 + aj_u8_x13 + aj_u9_x13 - a0_u1 = 0
 c106: aj_u10_x13 + aj_u11_x13 + aj_u12_x13 + aj_u13_x13 + aj_u14_x13 - a0_u2
        = 0
 c107: aj_u15_x13 + aj_u16_x13 + aj_u17_x13 + aj_u18_x13 + aj_u19_x13 - a0_u3
        = 0
 c108: aj_u20_x13 + aj_u21_x13 + aj_u22_x13 + aj_u23_x13 + aj_u24_x13 - a0_u4
        = 0
 c109: aj_u0_x14 + aj_u1_x14 + aj_u2_x14 + aj_u3_x14 + aj_u4_x14 - a0_u0 = 0
 c110: aj_u5_x14 + aj_u6_x14 + aj_u7_x14 + aj_u8_x14 + aj_u9_x14 - a0_u1 = 0
 c111: aj_u10_x14 + aj_u11_x14 + aj_u12_x14 + aj_u13_x14 + aj_u14_x14 - a0_u2
        = 0
 c112: aj_u15_x14 + aj_u16_x14 + aj_u17_x14 + aj_u18_x14 + aj_u19_x14 - a0_u3
        = 0
 c113: aj_u20_x14 + aj_u21_x14 + aj_u22_x14 + aj_u23_x14 + aj_u24_x14 - a0_u4
        = 0
 c114: aj_u0_x15 + aj_u1_x15 + aj_u2_x15 + aj_u3_x15 + aj_u4_x15 - a0_u0 = 0
 c115: aj_u5_x15 + aj_u6_x15 + aj_u7_x15 + aj_u8_x15 + aj_u9_x15 - a0_u1 = 0
 c116: aj_u10_x15 + aj_u11_x15 + aj_u12_x15 + aj_u13_x15 + aj_u14_x15 - a0_u2
        = 0
 c117: aj_u15_x15 + aj_u16_x15 + aj_u17_x15 + aj_u18_x15 + aj_u19_x15 - a0_u3
        = 0
 c118: aj_u20_x15 + aj_u21_x15 + aj_u22_x15 + aj_u23_x15 + aj_u24_x15 - a0_u4
        = 0
 c119: aj_u0_x0 + aj_u5_x0 + aj_u10_x0 + aj_u15_x0 + aj_u20_x0 - a1_u0_x0 = 0
 c120: aj_u1_x0 + aj_u6_x0 + aj_u11_x0 + aj_u16_x0 + aj_u21_x0 - a1_u1_x0 = 0
 c121: aj_u2_x0 + aj_u7_x0 + aj_u12_x0 + aj_u17_x0 + aj_u22_x0 - a1_u2_x0 = 0
 c122: aj_u3_x0 + aj_u8_x0 + aj_u13_x0 + aj_u18_x0 + aj_u23_x0 - a1_u3_x0 = 0
 c123: aj_u4_x0 + aj_u9_x0 + aj_u14_x0 + aj_u19_x0 + aj_u24_x0 - a1_u4_x0 = 0
 c124: aj_u0_x1 + aj_u5_x1 + aj_u10_x1 + aj_u15_x1 + aj_u20_x1 - a1_u0_x1 = 0
 c125: aj_u1_x1 + aj_u6_x1 + aj_u11_x1 + aj_u16_x1 + aj_u21_x1 - a1_u1_x1 = 0
 c126: aj_u2_x1 + aj_u7_x1 + aj_u12_x1 + aj_u17_x1 + aj_u22_x1 - a1_u2_x1 = 0
 c127: aj_u3_x1 + aj_u8_x1 + aj_u13_x1 + aj_u18_x1 + aj_u23_x1 - a1_u3_x1 = 0
 c128: aj_u4_x1 + aj_u9_x1 + aj_u14_x1 + aj_u19_x1 + aj_u24_x1 - a1_u4_x1 = 0
 c129: aj_u0_x2 + aj_u5_x2 + aj_u10_x2 + aj_u15_x2 + aj_u20_x2 - a1_u0_x2 = 0
 c130: aj_u1_x2 + aj_u6_x2 + aj_u11_x2 + aj_u16_x2 + aj_u21_x2 - a1_u1_x2 = 0
 c131: aj_u2_x2 + aj_u7_x2 + aj_u12_x2 + aj_u17_x2 + aj_u22_x2 - a1_u2_x2 = 0
 c132: aj_u3_x2 + aj_u8_x2 + aj_u13_x2 + aj_u18_x2 + aj_u23_x2 - a1_u3_x2 = 0
 c133: aj_u4_x2 + aj_u9_x2 + aj_u14_x2 + aj_u19_x2 + aj_u24_x2 - a1_u4_x2 = 0
 c134: aj_u0_x3 + aj_u5_x3 + aj_u10_x3 + aj_u15_x3 + aj_u20_x3 - a1_u0_x3 = 0
 c135: aj_u1_x3 + aj_u6_x3 + aj_u11_x3 + aj_u16_x3 + aj_u21_x3 - a1_u1_x3 = 0
 c136: aj_u2_x3 + aj_u7_x3 + aj_u12_x3 + aj_u17_x3 + aj_u22_x3 - a1_u2_x3 = 0
 c137: aj_u3_x3 + aj_u8_x3 + aj_u13_x3 + aj_u18_x3 + aj_u23_x3 - a1_u3_x3 = 0
 c138: aj_u4_x3 + aj_u9_x3 + aj_u14_x3 + aj_u19_x3 + aj_u24_x3 - a1_u4_x3 = 0
 c139: aj_u0_x4 + aj_u5_x4 + aj_u10_x4 + aj_u15_x4 + aj_u20_x4 - a1_u0_x4 = 0
 c140: aj_u1_x4 + aj_u6_x4 + aj_u11_x4 + aj_u16_x4 + aj_u21_x4 - a1_u1_x4 = 0
 c141: aj_u2_x4 + aj_u7_x4 + aj_u12_x4 + aj_u17_x4 + aj_u22_x4 - a1_u2_x4 = 0
 c142: aj_u3_x4 + aj_u8_x4 + aj_u13_x4 + aj_u18_x4 + aj_u23_x4 - a1_u3_x4 = 0
 c143: aj_u4_x4 + aj_u9_x4 + aj_u14_x4 + aj_u19_x4 + aj_u24_x4 - a1_u4_x4 = 0
 c144: aj_u0_x5 + aj_u5_x5 + aj_u10_x5 + aj_u15_x5 + aj_u20_x5 - a1_u0_x5 = 0
 c145: aj_u1_x5 + aj_u6_x5 + aj_u11_x5 + aj_u16_x5 + aj_u21_x5 - a1_u1_x5 = 0
 c146: aj_u2_x5 + aj_u7_x5 + aj_u12_x5 + aj_u17_x5 + aj_u22_x5 - a1_u2_x5 = 0
 c147: aj_u3_x5 + aj_u8_x5 + aj_u13_x5 + aj_u18_x5 + aj_u23_x5 - a1_u3_x5 = 0
 c148: aj_u4_x5 + aj_u9_x5 + aj_u14_x5 + aj_u19_x5 + aj_u24_x5 - a1_u4_x5 = 0
 c149: aj_u0_x6 + aj_u5_x6 + aj_u10_x6 + aj_u15_x6 + aj_u20_x6 - a1_u0_x6 = 0
 c150: aj_u1_x6 + aj_u6_x6 + aj_u11_x6 + aj_u16_x6 + aj_u21_x6 - a1_u1_x6 = 0
 c151: aj_u2_x6 + aj_u7_x6 + aj_u12_x6 + aj_u17_x6 + aj_u22_x6 - a1_u2_x6 = 0
 c152: aj_u3_x6 + aj_u8_x6 + aj_u13_x6 + aj_u18_x6 + aj_u23_x6 - a1_u3_x6 = 0
 c153: aj_u4_x6 + aj_u9_x6 + aj_u14_x6 + aj_u19_x6 + aj_u24_x6 - a1_u4_x6 = 0
 c154: aj_u0_x7 + aj_u5_x7 + aj_u10_x7 + aj_u15_x7 + aj_u20_x7 - a1_u0_x7 = 0
 c155: aj_u1_x7 + aj_u6_x7 + aj_u11_x7 + aj_u16_x7 + aj_u21_x7 - a1_u1_x7 = 0
 c156: aj_u2_x7 + aj_u7_x7 + aj_u12_x7 + aj_u17_x7 + aj_u22_x7 - a1_u2_x7 = 0
 c157: aj_u3_x7 + aj_u8_x7 + aj_u13_x7 + aj_u18_x7 + aj_u23_x7 - a1_u3_x7 = 0
 c158: aj_u4_x7 + aj_u9_x7 + aj_u14_x7 + aj_u19_x7 + aj_u24_x7 - a1_u4_x7 = 0
 c159: aj_u0_x8 + aj_u5_x8 + aj_u10_x8 + aj_u15_x8 + aj_u20_x8 - a1_u0_x8 = 0
 c160: aj_u1_x8 + aj_u6_x8 + aj_u11_x8 + aj_u16_x8 + aj_u21_x8 - a1_u1_x8 = 0
 c161: aj_u2_x8 + aj_u7_x8 + aj_u12_x8 + aj_u17_x8 + aj_u22_x8 - a1_u2_x8 = 0
 c162: aj_u3_x8 + aj_u8_x8 + aj_u13_x8 + aj_u18_x8 + aj_u23_x8 - a1_u3_x8 = 0
 c163: aj_u4_x8 + aj_u9_x8 + aj_u14_x8 + aj_u19_x8 + aj_u24_x8 - a1_u4_x8 = 0
 c164: aj_u0_x9 + aj_u5_x9 + aj_u10_x9 + aj_u15_x9 + aj_u20_x9 - a1_u0_x9 = 0
 c165: aj_u1_x9 + aj_u6_x9 + aj_u11_x9 + aj_u16_x9 + aj_u21_x9 - a1_u1_x9 = 0
 c166: aj_u2_x9 + aj_u7_x9 + aj_u12_x9 + aj_u17_x9 + aj_u22_x9 - a1_u2_x9 = 0
 c167: aj_u3_x9 + aj_u8_x9 + aj_u13_x9 + aj_u18_x9 + aj_u23_x9 - a1_u3_x9 = 0
 c168: aj_u4_x9 + aj_u9_x9 + aj_u14_x9 + aj_u19_x9 + aj_u24_x9 - a1_u4_x9 = 0
 c169: aj_u0_x10 + aj_u5_x10 + aj_u10_x10 + aj_u15_x10 + aj_u20_x10 - a1_u0_x10
        = 0
 c170: aj_u1_x10 + aj_u6_x10 + aj_u11_x10 + aj_u16_x10 + aj_u21_x10 - a1_u1_x10
        = 0
 c171: aj_u2_x10 + aj_u7_x10 + aj_u12_x10 + aj_u17_x10 + aj_u22_x10 - a1_u2_x10
        = 0
 c172: aj_u3_x10 + aj_u8_x10 + aj_u13_x10 + aj_u18_x10 + aj_u23_x10 - a1_u3_x10
        = 0
 c173: aj_u4_x10 + aj_u9_x10 + aj_u14_x10 + aj_u19_x10 + aj_u24_x10 - a1_u4_x10
        = 0
 c174: aj_u0_x11 + aj_u5_x11 + aj_u10_x11 + aj_u15_x11 + aj_u20_x11 - a1_u0_x11
        = 0
 c175: aj_u1_x11 + aj_u6_x11 + aj_u11_x11 + aj_u16_x11 + aj_u21_x11 - a1_u1_x11
        = 0
 c176: aj_u2_x11 + aj_u7_x11 + aj_u12_x11 + aj_u17_x11 + aj_u22_x11 - a1_u2_x11
        = 0
 c177: aj_u3_x11 + aj_u8_x11 + aj_u13_x11 + aj_u18_x11 + aj_u23_x11 - a1_u3_x11
        = 0
 c178: aj_u4_x11 + aj_u9_x11 + aj_u14_x11 + aj_u19_x11 + aj_u24_x11 - a1_u4_x11
        = 0
 c179: aj_u0_x12 + aj_u5_x12 + aj_u10_x12 + aj_u15_x12 + aj_u20_x12 - a1_u0_x12
        = 0
 c180: aj_u1_x12 + aj_u6_x12 + aj_u11_x12 + aj_u16_x12 + aj_u21_x12 - a1_u1_x12
        = 0
 c181: aj_u2_x12 + aj_u7_x12 + aj_u12_x12 + aj_u17_x12 + aj_u22_x12 - a1_u2_x12
        = 0
 c182: aj_u3_x12 + aj_u8_x12 + aj_u13_x12 + aj_u18_x12 + aj_u23_x12 - a1_u3_x12
        = 0
 c183: aj_u4_x12 + aj_u9_x12 + aj_u14_x12 + aj_u19_x12 + aj_u24_x12 - a1_u4_x12
        = 0
 c184: aj_u0_x13 + aj_u5_x13 + aj_u10_x13 + aj_u15_x13 + aj_u20_x13 - a1_u0_x13
        = 0
 c185: aj_u1_x13 + aj_u6_x13 + aj_u11_x13 + aj_u16_x13 + aj_u21_x13 - a1_u1_x13
        = 0
 c186: aj_u2_x13 + aj_u7_x13 + aj_u12_x13 + aj_u17_x13 + aj_u22_x13 - a1_u2_x13
        = 0
 c187: aj_u3_x13 + aj_u8_x13 + aj_u13_x13 + aj_u18_x13 + aj_u23_x13 - a1_u3_x13
        = 0
 c188: aj_u4_x13 + aj_u9_x13 + aj_u14_x13 + aj_u19_x13 + aj_u24_x13 - a1_u4_x13
        = 0
 c189: aj_u0_x14 + aj_u5_x14 + aj_u10_x14 + aj_u15_x14 + aj_u20_x14 - a1_u0_x14
        = 0
 c190: aj_u1_x14 + aj_u6_x14 + aj_u11_x14 + aj_u16_x14 + aj_u21_x14 - a1_u1_x14
        = 0
 c191: aj_u2_x14 + aj_u7_x14 + aj_u12_x14 + aj_u17_x14 + aj_u22_x14 - a1_u2_x14
        = 0
 c192: aj_u3_x14 + aj_u8_x14 + aj_u13_x14 + aj_u18_x14 + aj_u23_x14 - a1_u3_x14
        = 0
 c193: aj_u4_x14 + aj_u9_x14 + aj_u14_x14 + aj_u19_x14 + aj_u24_x14 - a1_u4_x14
        = 0
 c194: aj_u0_x15 + aj_u5_x15 + aj_u10_x15 + aj_u15_x15 + aj_u20_x15 - a1_u0_x15
        = 0
 c195: aj_u1_x15 + aj_u6_x15 + aj_u11_x15 + aj_u16_x15 + aj_u21_x15 - a1_u1_x15
        = 0
 c196: aj_u2_x15 + aj_u7_x15 + aj_u12_x15 + aj_u17_x15 + aj_u22_x15 - a1_u2_x15
        = 0
 c197: aj_u3_x15 + aj_u8_x15 + aj_u13_x15 + aj_u18_x15 + aj_u23_x15 - a1_u3_x15
        = 0
 c198: aj_u4_x15 + aj_u9_x15 + aj_u14_x15 + aj_u19_x15 + aj_u24_x15 - a1_u4_x15
        = 0

Bounds
       a0_u0 <= 1
       a0_u1 <= 1
       a0_u2 <= 1
       a0_u3 <= 1
       a0_u4 <= 1
 0 <= a1_u0_x0 <= 1
 0 <= a1_u1_x0 <= 1
 0 <= a1_u2_x0 <= 1
 0 <= a1_u3_x0 <= 1
 0 <= a1_u4_x0 <= 1
       aj_u0_x0 <= 1
       aj_u1_x0 <= 1
       aj_u2_x0 <= 1
       aj_u3_x0 <= 1
       aj_u4_x0 <= 1
       aj_u5_x0 <= 1
       aj_u6_x0 <= 1
       aj_u7_x0 <= 1
       aj_u8_x0 <= 1
       aj_u9_x0 <= 1
       aj_u10_x0 <= 1
       aj_u11_x0 <= 1
       aj_u12_x0 <= 1
       aj_u13_x0 <= 1
       aj_u14_x0 <= 1
       aj_u15_x0 <= 1
       aj_u16_x0 <= 1
       aj_u17_x0 <= 1
       aj_u18_x0 <= 1
       aj_u19_x0 <= 1
       aj_u20_x0 <= 1
       aj_u21_x0 <= 1
       aj_u22_x0 <= 1
       aj_u23_x0 <= 1
       aj_u24_x0 <= 1
 0 <= a1_u0_x1 <= 1
 0 <= a1_u1_x1 <= 1
 0 <= a1_u2_x1 <= 1
 0 <= a1_u3_x1 <= 1
 0 <= a1_u4_x1 <= 1
       aj_u0_x1 <= 1
       aj_u1_x1 <= 1
       aj_u2_x1 <= 1
       aj_u3_x1 <= 1
       aj_u4_x1 <= 1
       aj_u5_x1 <= 1
       aj_u6_x1 <= 1
       aj_u7_x1 <= 1
       aj_u8_x1 <= 1
       aj_u9_x1 <= 1
       aj_u10_x1 <= 1
       aj_u11_x1 <= 1
       aj_u12_x1 <= 1
       aj_u13_x1 <= 1
       aj_u14_x1 <= 1
       aj_u15_x1 <= 1
       aj_u16_x1 <= 1
       aj_u17_x1 <= 1
       aj_u18_x1 <= 1
       aj_u19_x1 <= 1
       aj_u20_x1 <= 1
       aj_u21_x1 <= 1
       aj_u22_x1 <= 1
       aj_u23_x1 <= 1
       aj_u24_x1 <= 1
 0 <= a1_u0_x2 <= 1
 0 <= a1_u1_x2 <= 1
 0 <= a1_u2_x2 <= 1
 0 <= a1_u3_x2 <= 1
 0 <= a1_u4_x2 <= 1
       aj_u0_x2 <= 1
       aj_u1_x2 <= 1
       aj_u2_x2 <= 1
       aj_u3_x2 <= 1
       aj_u4_x2 <= 1
       aj_u5_x2 <= 1
       aj_u6_x2 <= 1
       aj_u7_x2 <= 1
       aj_u8_x2 <= 1
       aj_u9_x2 <= 1
       aj_u10_x2 <= 1
       aj_u11_x2 <= 1
       aj_u12_x2 <= 1
       aj_u13_x2 <= 1
       aj_u14_x2 <= 1
       aj_u15_x2 <= 1
       aj_u16_x2 <= 1
       aj_u17_x2 <= 1
       aj_u18_x2 <= 1
       aj_u19_x2 <= 1
       aj_u20_x2 <= 1
       aj_u21_x2 <= 1
       aj_u22_x2 <= 1
       aj_u23_x2 <= 1
       aj_u24_x2 <= 1
 0 <= a1_u0_x3 <= 1
 0 <= a1_u1_x3 <= 1
 0 <= a1_u2_x3 <= 1
 0 <= a1_u3_x3 <= 1
 0 <= a1_u4_x3 <= 1
       aj_u0_x3 <= 1
       aj_u1_x3 <= 1
       aj_u2_x3 <= 1
       aj_u3_x3 <= 1
       aj_u4_x3 <= 1
       aj_u5_x3 <= 1
       aj_u6_x3 <= 1
       aj_u7_x3 <= 1
       aj_u8_x3 <= 1
       aj_u9_x3 <= 1
       aj_u10_x3 <= 1
       aj_u11_x3 <= 1
       aj_u12_x3 <= 1
       aj_u13_x3 <= 1
       aj_u14_x3 <= 1
       aj_u15_x3 <= 1
       aj_u16_x3 <= 1
       aj_u17_x3 <= 1
       aj_u18_x3 <= 1
       aj_u19_x3 <= 1
       aj_u20_x3 <= 1
       aj_u21_x3 <= 1
       aj_u22_x3 <= 1
       aj_u23_x3 <= 1
       aj_u24_x3 <= 1
 0 <= a1_u0_x4 <= 1
 0 <= a1_u1_x4 <= 1
 0 <= a1_u2_x4 <= 1
 0 <= a1_u3_x4 <= 1
 0 <= a1_u4_x4 <= 1
       aj_u0_x4 <= 1
       aj_u1_x4 <= 1
       aj_u2_x4 <= 1
       aj_u3_x4 <= 1
       aj_u4_x4 <= 1
       aj_u5_x4 <= 1
       aj_u6_x4 <= 1
       aj_u7_x4 <= 1
       aj_u8_x4 <= 1
       aj_u9_x4 <= 1
       aj_u10_x4 <= 1
       aj_u11_x4 <= 1
       aj_u12_x4 <= 1
       aj_u13_x4 <= 1
       aj_u14_x4 <= 1
       aj_u15_x4 <= 1
       aj_u16_x4 <= 1
       aj_u17_x4 <= 1
       aj_u18_x4 <= 1
       aj_u19_x4 <= 1
       aj_u20_x4 <= 1
       aj_u21_x4 <= 1
       aj_u22_x4 <= 1
       aj_u23_x4 <= 1
       aj_u24_x4 <= 1
 0 <= a1_u0_x5 <= 1
 0 <= a1_u1_x5 <= 1
 0 <= a1_u2_x5 <= 1
 0 <= a1_u3_x5 <= 1
 0 <= a1_u4_x5 <= 1
       aj_u0_x5 <= 1
       aj_u1_x5 <= 1
       aj_u2_x5 <= 1
       aj_u3_x5 <= 1
       aj_u4_x5 <= 1
       aj_u5_x5 <= 1
       aj_u6_x5 <= 1
       aj_u7_x5 <= 1
       aj_u8_x5 <= 1
       aj_u9_x5 <= 1
       aj_u10_x5 <= 1
       aj_u11_x5 <= 1
       aj_u12_x5 <= 1
       aj_u13_x5 <= 1
       aj_u14_x5 <= 1
       aj_u15_x5 <= 1
       aj_u16_x5 <= 1
       aj_u17_x5 <= 1
       aj_u18_x5 <= 1
       aj_u19_x5 <= 1
       aj_u20_x5 <= 1
       aj_u21_x5 <= 1
       aj_u22_x5 <= 1
       aj_u23_x5 <= 1
       aj_u24_x5 <= 1
 0 <= a1_u0_x6 <= 1
 0 <= a1_u1_x6 <= 1
 0 <= a1_u2_x6 <= 1
 0 <= a1_u3_x6 <= 1
 0 <= a1_u4_x6 <= 1
       aj_u0_x6 <= 1
       aj_u1_x6 <= 1
       aj_u2_x6 <= 1
       aj_u3_x6 <= 1
       aj_u4_x6 <= 1
       aj_u5_x6 <= 1
       aj_u6_x6 <= 1
       aj_u7_x6 <= 1
       aj_u8_x6 <= 1
       aj_u9_x6 <= 1
       aj_u10_x6 <= 1
       aj_u11_x6 <= 1
       aj_u12_x6 <= 1
       aj_u13_x6 <= 1
       aj_u14_x6 <= 1
       aj_u15_x6 <= 1
       aj_u16_x6 <= 1
       aj_u17_x6 <= 1
       aj_u18_x6 <= 1
       aj_u19_x6 <= 1
       aj_u20_x6 <= 1
       aj_u21_x6 <= 1
       aj_u22_x6 <= 1
       aj_u23_x6 <= 1
       aj_u24_x6 <= 1
 0 <= a1_u0_x7 <= 1
 0 <= a1_u1_x7 <= 1
 0 <= a1_u2_x7 <= 1
 0 <= a1_u3_x7 <= 1
 0 <= a1_u4_x7 <= 1
       aj_u0_x7 <= 1
       aj_u1_x7 <= 1
       aj_u2_x7 <= 1
       aj_u3_x7 <= 1
       aj_u4_x7 <= 1
       aj_u5_x7 <= 1
       aj_u6_x7 <= 1
       aj_u7_x7 <= 1
       aj_u8_x7 <= 1
       aj_u9_x7 <= 1
       aj_u10_x7 <= 1
       aj_u11_x7 <= 1
       aj_u12_x7 <= 1
       aj_u13_x7 <= 1
       aj_u14_x7 <= 1
       aj_u15_x7 <= 1
       aj_u16_x7 <= 1
       aj_u17_x7 <= 1
       aj_u18_x7 <= 1
       aj_u19_x7 <= 1
       aj_u20_x7 <= 1
       aj_u21_x7 <= 1
       aj_u22_x7 <= 1
       aj_u23_x7 <= 1
       aj_u24_x7 <= 1
 0 <= a1_u0_x8 <= 1
 0 <= a1_u1_x8 <= 1
 0 <= a1_u2_x8 <= 1
 0 <= a1_u3_x8 <= 1
 0 <= a1_u4_x8 <= 1
       aj_u0_x8 <= 1
       aj_u1_x8 <= 1
       aj_u2_x8 <= 1
       aj_u3_x8 <= 1
       aj_u4_x8 <= 1
       aj_u5_x8 <= 1
       aj_u6_x8 <= 1
       aj_u7_x8 <= 1
       aj_u8_x8 <= 1
       aj_u9_x8 <= 1
       aj_u10_x8 <= 1
       aj_u11_x8 <= 1
       aj_u12_x8 <= 1
       aj_u13_x8 <= 1
       aj_u14_x8 <= 1
       aj_u15_x8 <= 1
       aj_u16_x8 <= 1
       aj_u17_x8 <= 1
       aj_u18_x8 <= 1
       aj_u19_x8 <= 1
       aj_u20_x8 <= 1
       aj_u21_x8 <= 1
       aj_u22_x8 <= 1
       aj_u23_x8 <= 1
       aj_u24_x8 <= 1
 0 <= a1_u0_x9 <= 1
 0 <= a1_u1_x9 <= 1
 0 <= a1_u2_x9 <= 1
 0 <= a1_u3_x9 <= 1
 0 <= a1_u4_x9 <= 1
       aj_u0_x9 <= 1
       aj_u1_x9 <= 1
       aj_u2_x9 <= 1
       aj_u3_x9 <= 1
       aj_u4_x9 <= 1
       aj_u5_x9 <= 1
       aj_u6_x9 <= 1
       aj_u7_x9 <= 1
       aj_u8_x9 <= 1
       aj_u9_x9 <= 1
       aj_u10_x9 <= 1
       aj_u11_x9 <= 1
       aj_u12_x9 <= 1
       aj_u13_x9 <= 1
       aj_u14_x9 <= 1
       aj_u15_x9 <= 1
       aj_u16_x9 <= 1
       aj_u17_x9 <= 1
       aj_u18_x9 <= 1
       aj_u19_x9 <= 1
       aj_u20_x9 <= 1
       aj_u21_x9 <= 1
       aj_u22_x9 <= 1
       aj_u23_x9 <= 1
       aj_u24_x9 <= 1
 0 <= a1_u0_x10 <= 1
 0 <= a1_u1_x10 <= 1
 0 <= a1_u2_x10 <= 1
 0 <= a1_u3_x10 <= 1
 0 <= a1_u4_x10 <= 1
       aj_u0_x10 <= 1
       aj_u1_x10 <= 1
       aj_u2_x10 <= 1
       aj_u3_x10 <= 1
       aj_u4_x10 <= 1
       aj_u5_x10 <= 1
       aj_u6_x10 <= 1
       aj_u7_x10 <= 1
       aj_u8_x10 <= 1
       aj_u9_x10 <= 1
       aj_u10_x10 <= 1
       aj_u11_x10 <= 1
       aj_u12_x10 <= 1
       aj_u13_x10 <= 1
       aj_u14_x10 <= 1
       aj_u15_x10 <= 1
       aj_u16_x10 <= 1
       aj_u17_x10 <= 1
       aj_u18_x10 <= 1
       aj_u19_x10 <= 1
       aj_u20_x10 <= 1
       aj_u21_x10 <= 1
       aj_u22_x10 <= 1
       aj_u23_x10 <= 1
       aj_u24_x10 <= 1
 0 <= a1_u0_x11 <= 1
 0 <= a1_u1_x11 <= 1
 0 <= a1_u2_x11 <= 1
 0 <= a1_u3_x11 <= 1
 0 <= a1_u4_x11 <= 1
       aj_u0_x11 <= 1
       aj_u1_x11 <= 1
       aj_u2_x11 <= 1
       aj_u3_x11 <= 1
       aj_u4_x11 <= 1
       aj_u5_x11 <= 1
       aj_u6_x11 <= 1
       aj_u7_x11 <= 1
       aj_u8_x11 <= 1
       aj_u9_x11 <= 1
       aj_u10_x11 <= 1
       aj_u11_x11 <= 1
       aj_u12_x11 <= 1
       aj_u13_x11 <= 1
       aj_u14_x11 <= 1
       aj_u15_x11 <= 1
       aj_u16_x11 <= 1
       aj_u17_x11 <= 1
       aj_u18_x11 <= 1
       aj_u19_x11 <= 1
       aj_u20_x11 <= 1
       aj_u21_x11 <= 1
       aj_u22_x11 <= 1
       aj_u23_x11 <= 1
       aj_u24_x11 <= 1
 0 <= a1_u0_x12 <= 1
 0 <= a1_u1_x12 <= 1
 0 <= a1_u2_x12 <= 1
 0 <= a1_u3_x12 <= 1
 0 <= a1_u4_x12 <= 1
       aj_u0_x12 <= 1
       aj_u1_x12 <= 1
       aj_u2_x12 <= 1
       aj_u3_x12 <= 1
       aj_u4_x12 <= 1
       aj_u5_x12 <= 1
       aj_u6_x12 <= 1
       aj_u7_x12 <= 1
       aj_u8_x12 <= 1
       aj_u9_x12 <= 1
       aj_u10_x12 <= 1
       aj_u11_x12 <= 1
       aj_u12_x12 <= 1
       aj_u13_x12 <= 1
       aj_u14_x12 <= 1
       aj_u15_x12 <= 1
       aj_u16_x12 <= 1
       aj_u17_x12 <= 1
       aj_u18_x12 <= 1
       aj_u19_x12 <= 1
       aj_u20_x12 <= 1
       aj_u21_x12 <= 1
       aj_u22_x12 <= 1
       aj_u23_x12 <= 1
       aj_u24_x12 <= 1
 0 <= a1_u0_x13 <= 1
 0 <= a1_u1_x13 <= 1
 0 <= a1_u2_x13 <= 1
 0 <= a1_u3_x13 <= 1
 0 <= a1_u4_x13 <= 1
       aj_u0_x13 <= 1
       aj_u1_x13 <= 1
       aj_u2_x13 <= 1
       aj_u3_x13 <= 1
       aj_u4_x13 <= 1
       aj_u5_x13 <= 1
       aj_u6_x13 <= 1
       aj_u7_x13 <= 1
       aj_u8_x13 <= 1
       aj_u9_x13 <= 1
       aj_u10_x13 <= 1
       aj_u11_x13 <= 1
       aj_u12_x13 <= 1
       aj_u13_x13 <= 1
       aj_u14_x13 <= 1
       aj_u15_x13 <= 1
       aj_u16_x13 <= 1
       aj_u17_x13 <= 1
       aj_u18_x13 <= 1
       aj_u19_x13 <= 1
       aj_u20_x13 <= 1
       aj_u21_x13 <= 1
       aj_u22_x13 <= 1
       aj_u23_x13 <= 1
       aj_u24_x13 <= 1
 0 <= a1_u0_x14 <= 1
 0 <= a1_u1_x14 <= 1
 0 <= a1_u2_x14 <= 1
 0 <= a1_u3_x14 <= 1
 0 <= a1_u4_x14 <= 1
       aj_u0_x14 <= 1
       aj_u1_x14 <= 1
       aj_u2_x14 <= 1
       aj_u3_x14 <= 1
       aj_u4_x14 <= 1
       aj_u5_x14 <= 1
       aj_u6_x14 <= 1
       aj_u7_x14 <= 1
       aj_u8_x14 <= 1
       aj_u9_x14 <= 1
       aj_u10_x14 <= 1
       aj_u11_x14 <= 1
       aj_u12_x14 <= 1
       aj_u13_x14 <= 1
       aj_u14_x14 <= 1
       aj_u15_x14 <= 1
       aj_u16_x14 <= 1
       aj_u17_x14 <= 1
       aj_u18_x14 <= 1
       aj_u19_x14 <= 1
       aj_u20_x14 <= 1
       aj_u21_x14 <= 1
       aj_u22_x14 <= 1
       aj_u23_x14 <= 1
       aj_u24_x14 <= 1
 0 <= a1_u0_x15 <= 1
 0 <= a1_u1_x15 <= 1
 0 <= a1_u2_x15 <= 1
 0 <= a1_u3_x15 <= 1
 0 <= a1_u4_x15 <= 1
       aj_u0_x15 <= 1
       aj_u1_x15 <= 1
       aj_u2_x15 <= 1
       aj_u3_x15 <= 1
       aj_u4_x15 <= 1
       aj_u5_x15 <= 1
       aj_u6_x15 <= 1
       aj_u7_x15 <= 1
       aj_u8_x15 <= 1
       aj_u9_x15 <= 1
       aj_u10_x15 <= 1
       aj_u11_x15 <= 1
       aj_u12_x15 <= 1
       aj_u13_x15 <= 1
       aj_u14_x15 <= 1
       aj_u15_x15 <= 1
       aj_u16_x15 <= 1
       aj_u17_x15 <= 1
       aj_u18_x15 <= 1
       aj_u19_x15 <= 1
       aj_u20_x15 <= 1
       aj_u21_x15 <= 1
       aj_u22_x15 <= 1
       aj_u23_x15 <= 1
       aj_u24_x15 <= 1

Binaries
 a1_u0_x0 a1_u1_x0 a1_u2_x0 a1_u3_x0 a1_u4_x0 a1_u0_x1 a1_u1_x1 a1_u2_x1
 a1_u3_x1 a1_u4_x1 a1_u0_x2 a1_u1_x2 a1_u2_x2 a1_u3_x2 a1_u4_x2 a1_u0_x3
 a1_u1_x3 a1_u2_x3 a1_u3_x3 a1_u4_x3 a1_u0_x4 a1_u1_x4 a1_u2_x4 a1_u3_x4
 a1_u4_x4 a1_u0_x5 a1_u1_x5 a1_u2_x5 a1_u3_x5 a1_u4_x5 a1_u0_x6 a1_u1_x6
 a1_u2_x6 a1_u3_x6 a1_u4_x6 a1_u0_x7 a1_u1_x7 a1_u2_x7 a1_u3_x7 a1_u4_x7
 a1_u0_x8 a1_u1_x8 a1_u2_x8 a1_u3_x8 a1_u4_x8 a1_u0_x9 a1_u1_x9 a1_u2_x9
 a1_u3_x9 a1_u4_x9 a1_u0_x10 a1_u1_x10 a1_u2_x10 a1_u3_x10 a1_u4_x10 a1_u0_x11
 a1_u1_x11 a1_u2_x11 a1_u3_x11 a1_u4_x11 a1_u0_x12 a1_u1_x12 a1_u2_x12 a1_u3_x12
 a1_u4_x12 a1_u0_x13 a1_u1_x13 a1_u2_x13 a1_u3_x13 a1_u4_x13 a1_u0_x14 a1_u1_x14
 a1_u2_x14 a1_u3_x14 a1_u4_x14 a1_u0_x15 a1_u1_x15 a1_u2_x15 a1_u3_x15 a1_u4_x15
End
